(set-info :source |printed by MathSAT|)
(declare-fun call_excludes2.excludes.next () Bool)
(declare-fun speed () Int)
(declare-fun call_voiture.flby5 () Int)
(declare-fun call_voiture.time () Int)
(declare-fun call_voiture.ite2 () Int)
(declare-fun second () Bool)
(declare-fun param_m.next () Bool)
(declare-fun _OK_.next () Bool)
(declare-fun call_Sofar.flby.next () Bool)
(declare-fun _OK_ () Bool)
(declare-fun meter.next () Bool)
(declare-fun dist () Int)
(declare-fun call_voiture.stop () Bool)
(declare-fun env () Bool)
(declare-fun call_Sofar.flby () Bool)
(declare-fun call_excludes2.excludes () Bool)
(declare-fun toofast () Bool)
(declare-fun param_s () Bool)
(declare-fun call_voiture.meter.next () Bool)
(declare-fun call_voiture.flby2 () Bool)
(declare-fun call_voiture.dist.next () Int)
(declare-fun call_voiture.flby4.next () Int)
(declare-fun call_voiture.flby3 () Bool)
(declare-fun call_voiture.stop.next () Bool)
(declare-fun bump () Bool)
(declare-fun time.next () Int)
(declare-fun call_voiture.dist () Int)
(declare-fun call_voiture.second () Bool)
(declare-fun param_s.next () Bool)
(declare-fun call_voiture.second.next () Bool)
(declare-fun call_voiture.speed () Int)
(declare-fun call_voiture.ite.next () Int)
(declare-fun call_voiture.flby5.next () Int)
(declare-fun meter () Bool)
(declare-fun call_voiture.move () Bool)
(declare-fun call_voiture.time.next () Int)
(declare-fun flby.next () Bool)
(declare-fun call_voiture.bump.next () Bool)
(declare-fun flby () Bool)
(declare-fun call_voiture.flby2.next () Bool)
(declare-fun call_Sofar.Sofar () Bool)
(declare-fun move () Bool)
(declare-fun call_voiture.ite3.next () Int)
(declare-fun env.next () Bool)
(declare-fun call_voiture.bump () Bool)
(declare-fun time () Int)
(declare-fun call_voiture.ite2.next () Int)
(declare-fun call_voiture.flby.next () Bool)
(declare-fun call_voiture.ite4.next () Int)
(declare-fun call_voiture.flby4 () Int)
(declare-fun toofast.next () Bool)
(declare-fun call_voiture.move.next () Bool)
(declare-fun call_voiture.toofast.next () Bool)
(declare-fun call_voiture.toofast () Bool)
(declare-fun dist.next () Int)
(declare-fun speed.next () Int)
(declare-fun call_voiture.flby () Bool)
(declare-fun stop () Bool)
(declare-fun call_voiture.flby6 () Int)
(declare-fun move.next () Bool)
(declare-fun call_Sofar.Sofar.next () Bool)
(declare-fun call_voiture.flby6.next () Int)
(declare-fun call_voiture.meter () Bool)
(declare-fun call_voiture.speed.next () Int)
(declare-fun param_m () Bool)
(declare-fun call_voiture.ite3 () Int)
(declare-fun call_voiture.flby3.next () Bool)
(declare-fun second.next () Bool)
(declare-fun bump.next () Bool)
(declare-fun stop.next () Bool)
(define-fun .def_515 () Bool (= call_Sofar.flby.next call_Sofar.Sofar.next))
(define-fun .def_511 () Bool (and param_s.next param_m.next))
(define-fun .def_512 () Bool (not .def_511))
(define-fun .def_513 () Bool (= call_excludes2.excludes.next .def_512))
(define-fun .def_509 () Bool (= call_voiture.meter.next call_voiture.flby.next))
(define-fun .def_507 () Bool (= call_voiture.second.next call_voiture.flby2.next))
(define-fun .def_504 () Bool (= call_voiture.move.next call_voiture.flby3.next))
(define-fun .def_501 () Bool (= call_voiture.ite3.next 0))
(define-fun .def_497 () Bool (not call_voiture.move.next))
(define-fun .def_498 () Bool (or call_voiture.second.next .def_497))
(define-fun .def_500 () Bool (not .def_498))
(define-fun .def_502 () Bool (or .def_500 .def_501))
(define-fun .def_496 () Bool (= call_voiture.ite2.next call_voiture.ite3.next))
(define-fun .def_499 () Bool (or .def_496 .def_498))
(define-fun .def_503 () Bool (and .def_499 .def_502))
(define-fun .def_505 () Bool (and .def_503 .def_504))
(define-fun .def_494 () Bool (= call_voiture.flby6.next call_voiture.time.next))
(define-fun .def_492 () Bool (= call_voiture.flby5.next call_voiture.speed.next))
(define-fun .def_490 () Bool (= call_voiture.flby4.next call_voiture.dist.next))
(define-fun .def_487 () Bool (= call_voiture.dist.next 10))
(define-fun .def_488 () Bool (= call_voiture.bump.next .def_487))
(define-fun .def_484 () Bool (<= 4 call_voiture.time.next))
(define-fun .def_485 () Bool (= call_voiture.stop.next .def_484))
(define-fun .def_481 () Bool (<= 3 call_voiture.speed.next))
(define-fun .def_482 () Bool (= call_voiture.toofast.next .def_481))
(define-fun .def_479 () Bool (= env.next call_Sofar.Sofar.next))
(define-fun .def_475 () Bool (= call_voiture.meter.next meter.next))
(define-fun .def_472 () Bool (= call_voiture.second.next second.next))
(define-fun .def_469 () Bool (= call_voiture.move.next move.next))
(define-fun .def_466 () Bool (= time.next call_voiture.time.next))
(define-fun .def_462 () Bool (= speed.next call_voiture.speed.next))
(define-fun .def_458 () Bool (= dist.next call_voiture.dist.next))
(define-fun .def_454 () Bool (= bump.next call_voiture.bump.next))
(define-fun .def_450 () Bool (= stop.next call_voiture.stop.next))
(define-fun .def_446 () Bool (= toofast.next call_voiture.toofast.next))
(define-fun .def_443 () Bool (= flby.next _OK_.next))
(define-fun .def_447 () Bool (and .def_443 .def_446))
(define-fun .def_451 () Bool (and .def_447 .def_450))
(define-fun .def_455 () Bool (and .def_451 .def_454))
(define-fun .def_459 () Bool (and .def_455 .def_458))
(define-fun .def_463 () Bool (and .def_459 .def_462))
(define-fun .def_467 () Bool (and .def_463 .def_466))
(define-fun .def_470 () Bool (and .def_467 .def_469))
(define-fun .def_473 () Bool (and .def_470 .def_472))
(define-fun .def_476 () Bool (and .def_473 .def_475))
(define-fun .def_480 () Bool (and .def_476 .def_479))
(define-fun .def_483 () Bool (and .def_480 .def_482))
(define-fun .def_486 () Bool (and .def_483 .def_485))
(define-fun .def_489 () Bool (and .def_486 .def_488))
(define-fun .def_491 () Bool (and .def_489 .def_490))
(define-fun .def_493 () Bool (and .def_491 .def_492))
(define-fun .def_495 () Bool (and .def_493 .def_494))
(define-fun .def_506 () Bool (and .def_495 .def_505))
(define-fun .def_508 () Bool (and .def_506 .def_507))
(define-fun .def_510 () Bool (and .def_508 .def_509))
(define-fun .def_514 () Bool (and .def_510 .def_513))
(define-fun .def_516 () Bool (and .def_514 .def_515))
(define-fun .def_369 () Bool (= call_Sofar.flby call_Sofar.Sofar))
(define-fun .def_365 () Bool (and param_s param_m))
(define-fun .def_366 () Bool (not .def_365))
(define-fun .def_367 () Bool (= call_excludes2.excludes .def_366))
(define-fun .def_361 () Bool (= call_voiture.flby call_voiture.meter))
(define-fun .def_359 () Bool (= call_voiture.flby2 call_voiture.second))
(define-fun .def_356 () Bool (= call_voiture.flby3 call_voiture.move))
(define-fun .def_353 () Bool (= call_voiture.ite3 0))
(define-fun .def_349 () Bool (not call_voiture.move))
(define-fun .def_350 () Bool (or call_voiture.second .def_349))
(define-fun .def_352 () Bool (not .def_350))
(define-fun .def_354 () Bool (or .def_352 .def_353))
(define-fun .def_348 () Bool (= call_voiture.ite2 call_voiture.ite3))
(define-fun .def_351 () Bool (or .def_348 .def_350))
(define-fun .def_355 () Bool (and .def_351 .def_354))
(define-fun .def_357 () Bool (and .def_355 .def_356))
(define-fun .def_344 () Bool (= call_voiture.flby6 call_voiture.time))
(define-fun .def_342 () Bool (= call_voiture.flby5 call_voiture.speed))
(define-fun .def_340 () Bool (= call_voiture.flby4 call_voiture.dist))
(define-fun .def_337 () Bool (= call_voiture.dist 10))
(define-fun .def_338 () Bool (= call_voiture.bump .def_337))
(define-fun .def_334 () Bool (<= 4 call_voiture.time))
(define-fun .def_335 () Bool (= call_voiture.stop .def_334))
(define-fun .def_331 () Bool (<= 3 call_voiture.speed))
(define-fun .def_332 () Bool (= call_voiture.toofast .def_331))
(define-fun .def_329 () Bool (= env call_Sofar.Sofar))
(define-fun .def_325 () Bool (= meter call_voiture.meter))
(define-fun .def_321 () Bool (= second call_voiture.second))
(define-fun .def_317 () Bool (= move call_voiture.move))
(define-fun .def_313 () Bool (= time call_voiture.time))
(define-fun .def_309 () Bool (= speed call_voiture.speed))
(define-fun .def_305 () Bool (= dist call_voiture.dist))
(define-fun .def_301 () Bool (= bump call_voiture.bump))
(define-fun .def_297 () Bool (= stop call_voiture.stop))
(define-fun .def_293 () Bool (= toofast call_voiture.toofast))
(define-fun .def_290 () Bool (= flby _OK_))
(define-fun .def_294 () Bool (and .def_290 .def_293))
(define-fun .def_298 () Bool (and .def_294 .def_297))
(define-fun .def_302 () Bool (and .def_298 .def_301))
(define-fun .def_306 () Bool (and .def_302 .def_305))
(define-fun .def_310 () Bool (and .def_306 .def_309))
(define-fun .def_314 () Bool (and .def_310 .def_313))
(define-fun .def_318 () Bool (and .def_314 .def_317))
(define-fun .def_322 () Bool (and .def_318 .def_321))
(define-fun .def_326 () Bool (and .def_322 .def_325))
(define-fun .def_330 () Bool (and .def_326 .def_329))
(define-fun .def_333 () Bool (and .def_330 .def_332))
(define-fun .def_336 () Bool (and .def_333 .def_335))
(define-fun .def_339 () Bool (and .def_336 .def_338))
(define-fun .def_341 () Bool (and .def_339 .def_340))
(define-fun .def_343 () Bool (and .def_341 .def_342))
(define-fun .def_345 () Bool (and .def_343 .def_344))
(define-fun .def_358 () Bool (and .def_345 .def_357))
(define-fun .def_360 () Bool (and .def_358 .def_359))
(define-fun .def_362 () Bool (and .def_360 .def_361))
(define-fun .def_368 () Bool (and .def_362 .def_367))
(define-fun .def_370 () Bool (and .def_368 .def_369))
(define-fun .def_517 () Bool (and .def_370 .def_516))
(define-fun .def_438 () Bool (and call_Sofar.Sofar call_excludes2.excludes.next))
(define-fun .def_440 () Bool (= .def_438 call_Sofar.flby.next))
(define-fun .def_435 () Bool (= call_voiture.ite4.next call_voiture.flby6.next))
(define-fun .def_432 () Bool (= call_voiture.flby5.next call_voiture.ite3.next))
(define-fun .def_428 () Bool (= call_voiture.ite.next call_voiture.flby4.next))
(define-fun .def_422 () Bool (not call_voiture.bump))
(define-fun .def_420 () Bool (not call_voiture.toofast))
(define-fun .def_418 () Bool (not call_voiture.stop))
(define-fun .def_419 () Bool (and call_voiture.move .def_418))
(define-fun .def_421 () Bool (and .def_419 .def_420))
(define-fun .def_423 () Bool (and .def_421 .def_422))
(define-fun .def_425 () Bool (= .def_423 call_voiture.flby3.next))
(define-fun .def_416 () Bool (= param_s.next call_voiture.flby2.next))
(define-fun .def_409 () Bool (not param_s.next))
(define-fun .def_411 () Bool (and .def_409 param_m.next))
(define-fun .def_413 () Bool (= .def_411 call_voiture.flby.next))
(define-fun .def_404 () Bool (not call_voiture.second.next))
(define-fun .def_401 () Int (* (- 1) call_voiture.ite4.next))
(define-fun .def_402 () Int (+ call_voiture.time .def_401))
(define-fun .def_403 () Bool (= .def_402 (- 1)))
(define-fun .def_405 () Bool (or .def_403 .def_404))
(define-fun .def_398 () Bool (= call_voiture.time call_voiture.ite4.next))
(define-fun .def_400 () Bool (or .def_398 call_voiture.second.next))
(define-fun .def_406 () Bool (and .def_400 .def_405))
(define-fun .def_391 () Int (* (- 1) call_voiture.ite2.next))
(define-fun .def_392 () Int (+ call_voiture.speed .def_391))
(define-fun .def_393 () Bool (= .def_392 (- 1)))
(define-fun .def_376 () Bool (and call_voiture.move.next call_voiture.meter.next))
(define-fun .def_381 () Bool (not .def_376))
(define-fun .def_394 () Bool (or .def_381 .def_393))
(define-fun .def_389 () Bool (= call_voiture.speed call_voiture.ite2.next))
(define-fun .def_390 () Bool (or .def_376 .def_389))
(define-fun .def_395 () Bool (and .def_390 .def_394))
(define-fun .def_384 () Bool (not bump))
(define-fun .def_386 () Bool (= .def_384 flby.next))
(define-fun .def_378 () Int (* (- 1) call_voiture.ite.next))
(define-fun .def_379 () Int (+ call_voiture.dist .def_378))
(define-fun .def_380 () Bool (= .def_379 (- 1)))
(define-fun .def_382 () Bool (or .def_380 .def_381))
(define-fun .def_373 () Bool (= call_voiture.dist call_voiture.ite.next))
(define-fun .def_377 () Bool (or .def_373 .def_376))
(define-fun .def_383 () Bool (and .def_377 .def_382))
(define-fun .def_387 () Bool (and .def_383 .def_386))
(define-fun .def_396 () Bool (and .def_387 .def_395))
(define-fun .def_407 () Bool (and .def_396 .def_406))
(define-fun .def_414 () Bool (and .def_407 .def_413))
(define-fun .def_417 () Bool (and .def_414 .def_416))
(define-fun .def_426 () Bool (and .def_417 .def_425))
(define-fun .def_429 () Bool (and .def_426 .def_428))
(define-fun .def_433 () Bool (and .def_429 .def_432))
(define-fun .def_436 () Bool (and .def_433 .def_435))
(define-fun .def_441 () Bool (and .def_436 .def_440))
(define-fun .def_518 () Bool (and .def_441 .def_517))
(assert .def_518)
